outputs/case_371.model.txt
personnel_experience_proof_submitted = False
net_worth_ratio = 3/2
total_transaction_amount = 400000000
violate_internal_control_penalty = True
improvement_plan_approved = False
net_worth = 1000000
board_authorization_submitted = False
compliance_statement_submitted = False
internal_handling_executed = False
capital_level_4_measures_completed = False
board_approval = False
transaction_object_is_government_or_public = False
unable_to_pay_debt = False
social_housing_rental_only = False
self_use_real_estate_total = 3500000
single_transaction_amount = 200000000
annual_regular_audit_done = False
internal_handling_established = False
unable_to_fulfill_contract = False
capital_adequacy_ratio = 100
audit_report_retention_years = 3
risk_to_insured_rights = True
accelerated_deterioration = False
audit_training_plan_implemented = False
trading_procedure_submitted = False
real_estate_investment_meets_internal_procedures = False
improvement_plan_submitted = False
risk_management_policy_submitted = False
capital_funds = 5000000
internal_audit_system_created = False
owner_equity = 3000000
real_estate_investment_total = 2000000
capital_level_3_measures_completed = True
project_audit_done_as_needed = False
improvement_plan_executed = False
financial_or_business_deterioration = True
internal_control_and_audit_ok = True
insufficient_and_no_measures = False
internal_handling_ok = False
derivative_trading_approval_submitted = False
capital_level_insufficient = False
internal_control_executed = True
violate_fund_usage_regulations = False
violate_article_143_5_or_143_6_measures = False
violate_article_143 = False
regulatory_action_required = False
capital_level_adequate = False
violate_loan_limit_regulations = False
internal_control_established = True
capital_level_1_adequate = False
compliance_with_internal_control_and_handling = False
capital_level_significant_deterioration = True
violate_loan_guarantee_regulations = False
capital_level_4_measures_executed = False
internal_audit_system_established = False
real_estate_investment_special_cases_ok = False
capital_level_severe_insufficiency = False
derivative_trading_procedure_approved = False
significant_deterioration_and_no_measures = False
capital_level_2_measures_executed = False
capital_level = 3
accelerated_deterioration_and_no_improvement = False
violate_reserve_fund_regulations = False
internal_audit_training_plan_established = False
real_estate_investment_limits_ok = False
internal_audit_report_retained = False
loan_and_other_transaction_limits_ok = False
legal_violations_fines = False
improvement_plan_submitted_and_approved = False
penalty = False
severe_insufficiency_and_no_measures = False
violate_business_scope_regulations = False
capital_level_3_measures_executed = True